************************************************************************
file with basedata            : a1010_.bas
initial value random generator: 1987
************************************************************************
projects                      :  1
jobs (incl. supersource/sink ):  12
horizon bound                 :  80
RESOURCES
  - renewable                 :  4   R
  - nonrenewable              :  0   N
  - doubly constrained        :  0   D
  - partially renewable       :  0   P
************************************************************************
PROJECT INFORMATION:
prono.  #jobs rel.date duedate tardcost  CPM-Time
    1     10      0       12        3       12
************************************************************************
PRECEDENCE RELATIONS:
jobno.    #modes  #successors   successors
   1        1          3           2   3   4
   2        3          3           5   6   7
   3        3          3           5   7   8
   4        3          3           5   6   7
   5        3          3           9  10  11
   6        3          2           8   9
   7        3          3           9  10  11
   8        3          2          10  11
   9        3          1          12
  10        3          1          12
  11        3          1          12
  12        1          0        
************************************************************************
REQUESTS/DURATIONS:
jobno. mode duration  R 1  R 2  R 3  R 4
  1      1     0       0    0    0    0
  2      1     1       7    7    0    8
         2     3       0    0    0    7
         3     8       0    0    7    6
  3      1     2       0    0    3    5
         2     3       6    0    3    0
         3     7       5    0    0    4
  4      1     3       0    7    9    0
         2     6       2    3    0    9
         3     9       0    0    0    8
  5      1     3       9    5    4    5
         2     6       0    0    1    0
         3     7       0    0    0    5
  6      1     1       3    3    5    5
         2     4       0    2    0    0
         3     8       0    0    4    3
  7      1     3       0    8    8    0
         2     6       7    8    4    5
         3     9       5    0    0    0
  8      1     4       0    0    0    6
         2     5      10    6    0    0
         3     6       7    0    0    0
  9      1     1      10    4    0    5
         2     2      10    0   10    0
         3    10       0    4    5    0
 10      1     4       0    0    9    8
         2     9       6    0    4    7
         3    10       4    3    0    0
 11      1     1       0    4   10    0
         2     5       2    4    0    0
         3     6       0    0    0    8
 12      1     0       0    0    0    0
************************************************************************
RESOURCE AVAILABILITIES:
  R 1  R 2  R 3  R 4
    5    4    4    9
************************************************************************
